38 500
2 105
9 135
4 137
11 147
11 180
9 171
11 137
7 121
2 191
6 138
9 100
7 121
7 135
7 134
3 142
7 151
8 138
7 200
10 162
8 134
8 171
4 151
10 119
4 119
10 142
2 194
10 162
10 100
8 191
8 180
7 105
2 122
11 194
2 200
6 147
3 122
9 141
10 141
